
Gurobi 11.0.0 (win64, C++) logging started Tue Jul 29 14:00:10 2025

Set parameter TokenServer to value "141.76.38.119"
### START HEURISTIC APPROACH APPROACH ###
ProblemVariant: 1
### START PREPROCESSING ###
## Start start solution procedure ##
Start solution with 7 Vehicles and total costs 2794.05 in 16.9325 s.
### END PREPROCESSING ###
Route 0 0-12-10-0 : weight util 0.058342 | volume util 0.395444 | infeasible with packing heuristic | feasible with CP model
Route 1 0-29-22-11-0 : weight util 0.168947 | volume util 0.502200 | infeasible with packing heuristic | feasible with CP model
Route 2 0-7-30-2-28-27-26-18-0 : weight util 0.911605 | volume util 0.588533 | infeasible with packing heuristic | feasible with CP model
Route 3 0-8-23-19-25-20-9-0 : weight util 0.760868 | volume util 0.605111 | infeasible with packing heuristic | feasible with CP model
Route 4 0-6-31-4-0 : weight util 0.285816 | volume util 0.497333 | infeasible with packing heuristic | feasible with CP model
Route 5 0-5-3-14-24-15-21-0 : weight util 0.256158 | volume util 0.625978 | infeasible with packing heuristic | feasible with CP model
Route 6 0-16-13-17-1-32-0 : weight util 0.152079 | volume util 0.544178 | infeasible with packing heuristic | feasible with CP model
